50
1000
794
790
786
780
763
760
748
736
733
699
674
651
624
623
597
596
587
584
573
571
557
551
524
523
519
479
476
472
471
467
462
455
454
437
431
429
411
381
362
353
334
324
318
302
300
299
281
274
258
211
